100
32
17
5
12
7
4
31
15
32
19
4
13
8
1
24
7
16
9
12
19
21
13
28
22
5
23
7
27
14
27
7
23
14
7
32
21
8
25
24
9
7
14
28
15
8
25
31
28
17
14
6
7
29
22
30
3
6
20
9
9
6
18
2
31
1
9
16
32
4
21
8
13
19
20
11
21
10
18
4
20
10
25
18
13
9
8
4
18
6
1
15
29
24
29
21
6
15
12
18
4
8